\ Model TOP
\ LP format - for model browsing. Use MPS format to capture full model detail.
Maximize
  -0 y_1_1 + -0 u_1_1 + -0 x_(1,1)_1 + -0 y_1_2 + -0 u_1_2 + -0 x_(1,1)_2
   + 14 y_2_1 + -0 u_2_1 + -0 x_(2,1)_1 + 14 y_2_2 + -0 u_2_2
   + -0 x_(2,1)_2 + 71 y_3_1 + -0 u_3_1 + -0 x_(3,1)_1 + 71 y_3_2
   + -0 u_3_2 + -0 x_(3,1)_2 + 60 y_4_1 + -0 u_4_1 + -0 x_(4,1)_1
   + 60 y_4_2 + -0 u_4_2 + -0 x_(4,1)_2 + -0 y_5_1 + -0 u_5_1
   + -0 x_(5,1)_1 + -0 x_(5,2)_1 + -0 x_(5,3)_1 + -0 x_(5,4)_1
   + -0 x_(5,5)_1 + -0 y_5_2 + -0 u_5_2 + -0 x_(5,1)_2 + -0 x_(5,2)_2
   + -0 x_(5,3)_2 + -0 x_(5,4)_2 + -0 x_(5,5)_2
Subject To
 must_visit_depot_1: x_(1,2)_1 + x_(1,3)_1 + x_(1,4)_1 + x_(1,5)_1 + x_(1,2)_2 + x_(1,3)_2 + x_(1,4)_2 + x_(1,5)_2 = 2
 must_visit_depot_end: x_(1,5)_1 + x_(1,5)_2 + x_(2,5)_1 + x_(2,5)_2 + x_(3,5)_1 + x_(3,5)_2 + x_(4,5)_1 + x_(4,5)_2 = 2
 only_one_visit_pr_scooter_(k=2): y_2_1 + y_2_2 <= 1
 only_one_visit_pr_scooter_(k=3): y_3_1 + y_3_2 <= 1
 only_one_visit_pr_scooter_(k=4): y_4_1 + y_4_2 <= 1
 connectivity_1_(k=2,_v=1): x_(1,2)_1 - y_2_1 + x_(2,2)_1 + x_(3,2)_1 + x_(4,2)_1 = 0
 connectivity_2_(k=2,_v=1): - y_2_1 + x_(2,2)_1 + x_(2,3)_1 + x_(2,4)_1 + x_(2,5)_1 = 0
 connectivity_1_(k=2,_v=2): x_(1,2)_2 - y_2_2 + x_(2,2)_2 + x_(3,2)_2 + x_(4,2)_2 = 0
 connectivity_2_(k=2,_v=2): - y_2_2 + x_(2,2)_2 + x_(2,3)_2 + x_(2,4)_2 + x_(2,5)_2 = 0
 connectivity_1_(k=3,_v=1): x_(1,3)_1 + x_(2,3)_1 - y_3_1 + x_(3,3)_1 + x_(4,3)_1 = 0
 connectivity_2_(k=3,_v=1): - y_3_1 + x_(3,2)_1 + x_(3,3)_1 + x_(3,4)_1 + x_(3,5)_1 = 0
 connectivity_1_(k=3,_v=2): x_(1,3)_2 + x_(2,3)_2 - y_3_2 + x_(3,3)_2 + x_(4,3)_2 = 0
 connectivity_2_(k=3,_v=2): - y_3_2 + x_(3,2)_2 + x_(3,3)_2 + x_(3,4)_2 + x_(3,5)_2 = 0
 connectivity_1_(k=4,_v=1): x_(1,4)_1 + x_(2,4)_1 + x_(3,4)_1 - y_4_1 + x_(4,4)_1 = 0
 connectivity_2_(k=4,_v=1): - y_4_1 + x_(4,2)_1 + x_(4,3)_1 + x_(4,4)_1 + x_(4,5)_1 = 0
 connectivity_1_(k=4,_v=2): x_(1,4)_2 + x_(2,4)_2 + x_(3,4)_2 - y_4_2 + x_(4,4)_2 = 0
 connectivity_2_(k=4,_v=2): - y_4_2 + x_(4,2)_2 + x_(4,3)_2 + x_(4,4)_2 + x_(4,5)_2 = 0
Bounds
Binaries
 y_1_1 u_1_1 x_(1,1)_1 x_(1,2)_1 x_(1,3)_1 x_(1,4)_1 x_(1,5)_1 y_1_2 u_1_2
 x_(1,1)_2 x_(1,2)_2 x_(1,3)_2 x_(1,4)_2 x_(1,5)_2 y_2_1 u_2_1 x_(2,1)_1
 x_(2,2)_1 x_(2,3)_1 x_(2,4)_1 x_(2,5)_1 y_2_2 u_2_2 x_(2,1)_2 x_(2,2)_2
 x_(2,3)_2 x_(2,4)_2 x_(2,5)_2 y_3_1 u_3_1 x_(3,1)_1 x_(3,2)_1 x_(3,3)_1
 x_(3,4)_1 x_(3,5)_1 y_3_2 u_3_2 x_(3,1)_2 x_(3,2)_2 x_(3,3)_2 x_(3,4)_2
 x_(3,5)_2 y_4_1 u_4_1 x_(4,1)_1 x_(4,2)_1 x_(4,3)_1 x_(4,4)_1 x_(4,5)_1
 y_4_2 u_4_2 x_(4,1)_2 x_(4,2)_2 x_(4,3)_2 x_(4,4)_2 x_(4,5)_2 y_5_1 u_5_1
 x_(5,1)_1 x_(5,2)_1 x_(5,3)_1 x_(5,4)_1 x_(5,5)_1 y_5_2 u_5_2 x_(5,1)_2
 x_(5,2)_2 x_(5,3)_2 x_(5,4)_2 x_(5,5)_2
End
